c 178_4_checker_5cl.cnf
c
c field = 178
c formula set type = 4_checker_5cl
c
p cnf 5 10
350 
352 
356 
358 
-348 
351 
353 
357 
359 
-349 
324 
384 
414 
444 
-294 
325 
385 
415 
445 
-295 
290 
322 
386 
418 
-258 
291 
323 
387 
419 
-259 
298 
326 
382 
410 
-438 
299 
327 
383 
411 
-439 
326 
382 
410 
438 
-298 
327 
383 
411 
439 
-299 
